\ENCODING=ISO-8859-1
\Problem name: IloCplex

Minimize
 obj: z
Subject To
 Knapsack: - x_0 - x_1 - x_2 - x_3 - x_4 - x_5 - x_6 - x_7 - x_8 - x_9 - x_10
           - x_11 - x_12 - x_13 - x_14 - x_15 - x_16 - x_17 - x_18 - x_19
           - x_20 - x_21 - x_22 - x_23 - x_24 - x_25 - x_26 - x_27 - x_28
           - x_29 - x_30 - x_31 - x_32 - x_33 - x_34 - x_35 - x_36 - x_37
           - x_38 - x_39 - x_40 - x_41 - x_42 - x_43 - x_44 - x_45 - x_46
           - x_47 - x_48 - x_49 - x_50 - x_51 - x_52 - x_53 - x_54 - x_55
           - x_56 - x_57 - x_58 - x_59 - x_60 - x_61 - x_62 - x_63 - x_64
           - x_65 - x_66 - x_67 - x_68 - x_69 - x_70 - x_71 - x_72 - x_73
           - x_74 - x_75 - x_76 - x_77 >= -3
 Cover_0:  x_4 + x_17 + x_22 + x_25 + x_26 + x_28 + x_31 + x_35 + x_36 + x_38
           + x_40 + x_45 + x_49 + x_54 + x_55 + x_57 + x_61 + x_62 + x_63
           + x_71 + x_73 + x_74 + x_77  = 1
 Cover_1:  x_5 + x_17 + x_23 + x_28 + x_35 + x_49 + x_53 + x_55 + x_56 + x_58
           + x_61 + x_63 + x_69 + x_73 + x_74 + x_77  = 1
 Cover_2:  x_6 + x_21 + x_24 + x_30 + x_32 + x_34 + x_37 + x_43 + x_44 + x_47
           + x_48 + x_52 + x_65 + x_66 + x_67  = 1
 Cover_3:  x_7 + x_24 + x_32 + x_34 + x_38 + x_44 + x_47 + x_48 + x_52 + x_65
           + x_66 + x_67 + x_68 + x_73  = 1
 Cover_4:  x_8 + x_18 + x_26 + x_33 + x_40 + x_41 + x_45 + x_46 + x_51 + x_54
           + x_58 + x_59 + x_60 + x_62 + x_64 + x_69 + x_70 + x_75 + x_76  = 1
 Cover_5:  x_9 + x_20 + x_27 + x_33 + x_37 + x_39 + x_46 + x_51 + x_53 + x_58
           + x_59 + x_62 + x_64 + x_70 + x_72 + x_76  = 1
 Cover_6:  x_10 + x_20 + x_33 + x_41 + x_46 + x_51 + x_53 + x_58 + x_59 + x_62
           + x_64 + x_69 + x_70 + x_72 + x_75 + x_76  = 1
 Cover_7:  x_11 + x_21 + x_24 + x_30 + x_32 + x_34 + x_37 + x_43 + x_44 + x_47
           + x_48 + x_52 + x_65 + x_66 + x_67 + x_68  = 1
 Cover_8:  x_12 + x_18 + x_33 + x_41 + x_45 + x_46 + x_51 + x_54 + x_58 + x_59
           + x_60 + x_62 + x_64 + x_69 + x_70 + x_72 + x_75 + x_76  = 1
 Cover_9:  x_13 + x_17 + x_23 + x_28 + x_30 + x_35 + x_42 + x_49 + x_53 + x_55
           + x_56 + x_63 + x_69 + x_74 + x_77  = 1
 Cover_10: x_14 + x_18 + x_20 + x_25 + x_28 + x_31 + x_36 + x_39 + x_41 + x_43
           + x_45 + x_54 + x_55 + x_60 + x_68 + x_70 + x_71 + x_72 + x_75  = 1
 Cover_11: x_15 + x_17 + x_22 + x_23 + x_25 + x_26 + x_31 + x_35 + x_38 + x_40
           + x_49 + x_55 + x_56 + x_57 + x_61 + x_63 + x_71 + x_73 + x_74
           + x_77  = 1
 Cover_12: x_16 + x_27 + x_33 + x_41 + x_42 + x_53 + x_69  = 1
 Cover_13: x_19 + x_23 + x_24 + x_26 + x_32 + x_34 + x_38 + x_44 + x_47 + x_48
           + x_51 + x_52 + x_65 + x_66 + x_67 + x_73  = 1
 Cover_14: x_17 + x_18 + x_23 + x_24 + x_25 + x_26 + x_29 + x_32 + x_34 + x_38
           + x_40 + x_44 + x_47 + x_48 + x_51 + x_52 + x_56 + x_57 + x_64
           + x_66 + x_67 + x_73 + x_76 + x_77  = 1
 Cover_15: x_17 + x_18 + x_22 + x_23 + x_24 + x_25 + x_26 + x_31 + x_35 + x_38
           + x_40 + x_44 + x_47 + x_48 + x_50 + x_51 + x_56 + x_57 + x_61
           + x_63 + x_64 + x_73 + x_74 + x_77  = 1
 Cover_16: x_1 + x_18 + x_23 + x_24 + x_26 + x_32 + x_34 + x_38 + x_40 + x_44
           + x_47 + x_48 + x_51 + x_52 + x_56 + x_57 + x_64 + x_66 + x_67
           + x_73 + x_76 + x_77  = 1
 Cover_17: x_0 + x_17 + x_22 + x_23 + x_25 + x_26 + x_28 + x_31 + x_35 + x_36
           + x_38 + x_40 + x_49 + x_55 + x_56 + x_57 + x_61 + x_63 + x_71
           + x_73 + x_74 + x_77  = 1
 Cover_18: x_2 + x_21 + x_24 + x_30 + x_32 + x_34 + x_37 + x_43 + x_44 + x_47
           + x_48 + x_52 + x_57 + x_65 + x_66 + x_67 + x_68  = 1
 Cover_19: x_3 + x_21 + x_24 + x_30 + x_32 + x_37 + x_43 + x_44 + x_47 + x_52
           + x_59 + x_65 + x_66 + x_67  = 1
 Z_0:      z - 122 x_17 - 84 x_22 - 136 x_25 - 136 x_26 - 137 x_28 - 133 x_31
           - 135 x_35 - 85 x_36 - 113 x_38 - 130 x_40 - 122 x_45 - 88 x_49
           - 128 x_54 - 137 x_55 - 129 x_57 - 100 x_61 - 122 x_62 - 119 x_63
           - 102 x_71 - 129 x_73 - 136 x_74 - 132 x_77 >= 0
 Z_1:      z - 122 x_17 - 102 x_23 - 137 x_28 - 135 x_35 - 88 x_49 - 132 x_53
           - 137 x_55 - 96 x_56 - 106 x_58 - 100 x_61 - 119 x_63 - 129 x_69
           - 129 x_73 - 136 x_74 - 132 x_77 >= 0
 Z_2:      z - 78 x_21 - 128 x_24 - 128 x_30 - 135 x_32 - 90 x_34 - 137 x_37
           - 136 x_43 - 126 x_44 - 134 x_47 - 93 x_48 - 125 x_52 - 107 x_65
           - 123 x_66 - 131 x_67 >= 0
 Z_3:      z - 128 x_24 - 135 x_32 - 90 x_34 - 113 x_38 - 126 x_44 - 134 x_47
           - 93 x_48 - 125 x_52 - 107 x_65 - 123 x_66 - 131 x_67 - 101 x_68
           - 129 x_73 >= 0
 Z_4:      z - 129 x_18 - 136 x_26 - 121 x_33 - 130 x_40 - 136 x_41 - 122 x_45
           - 77 x_46 - 129 x_51 - 128 x_54 - 106 x_58 - 114 x_59 - 83 x_60
           - 122 x_62 - 123 x_64 - 129 x_69 - 132 x_70 - 92 x_75 - 120 x_76
           >= 0
 Z_5:      z - 125 x_20 - 98 x_27 - 121 x_33 - 137 x_37 - 85 x_39 - 77 x_46
           - 129 x_51 - 132 x_53 - 106 x_58 - 114 x_59 - 122 x_62 - 123 x_64
           - 132 x_70 - 134 x_72 - 120 x_76 >= 0
 Z_6:      z - 125 x_20 - 121 x_33 - 136 x_41 - 77 x_46 - 129 x_51 - 132 x_53
           - 106 x_58 - 114 x_59 - 122 x_62 - 123 x_64 - 129 x_69 - 132 x_70
           - 134 x_72 - 92 x_75 - 120 x_76 >= 0
 Z_7:      z - 78 x_21 - 128 x_24 - 128 x_30 - 135 x_32 - 90 x_34 - 137 x_37
           - 136 x_43 - 126 x_44 - 134 x_47 - 93 x_48 - 125 x_52 - 107 x_65
           - 123 x_66 - 131 x_67 - 101 x_68 >= 0
 Z_8:      z - 129 x_18 - 121 x_33 - 136 x_41 - 122 x_45 - 77 x_46 - 129 x_51
           - 128 x_54 - 106 x_58 - 114 x_59 - 83 x_60 - 122 x_62 - 123 x_64
           - 129 x_69 - 132 x_70 - 134 x_72 - 92 x_75 - 120 x_76 >= 0
 Z_9:      z - 122 x_17 - 102 x_23 - 137 x_28 - 128 x_30 - 135 x_35 - 76 x_42
           - 88 x_49 - 132 x_53 - 137 x_55 - 96 x_56 - 119 x_63 - 129 x_69
           - 136 x_74 - 132 x_77 >= 0
 Z_10:     z - 129 x_18 - 125 x_20 - 136 x_25 - 137 x_28 - 133 x_31 - 85 x_36
           - 85 x_39 - 136 x_41 - 136 x_43 - 122 x_45 - 128 x_54 - 137 x_55
           - 83 x_60 - 101 x_68 - 132 x_70 - 102 x_71 - 134 x_72 - 92 x_75 >= 0
 Z_11:     z - 122 x_17 - 84 x_22 - 102 x_23 - 136 x_25 - 136 x_26 - 133 x_31
           - 135 x_35 - 113 x_38 - 130 x_40 - 88 x_49 - 137 x_55 - 96 x_56
           - 129 x_57 - 100 x_61 - 119 x_63 - 102 x_71 - 129 x_73 - 136 x_74
           - 132 x_77 >= 0
 Z_12:     z - 98 x_27 - 121 x_33 - 136 x_41 - 76 x_42 - 132 x_53 - 129 x_69
           >= 0
 Z_13:     z - 102 x_23 - 128 x_24 - 136 x_26 - 135 x_32 - 90 x_34 - 113 x_38
           - 126 x_44 - 134 x_47 - 93 x_48 - 129 x_51 - 125 x_52 - 107 x_65
           - 123 x_66 - 131 x_67 - 129 x_73 >= 0
 Z_14:     z - 122 x_17 - 129 x_18 - 102 x_23 - 128 x_24 - 136 x_25 - 136 x_26
           - 135 x_32 - 90 x_34 - 113 x_38 - 130 x_40 - 126 x_44 - 134 x_47
           - 93 x_48 - 129 x_51 - 125 x_52 - 96 x_56 - 129 x_57 - 123 x_64
           - 123 x_66 - 131 x_67 - 129 x_73 - 120 x_76 - 132 x_77 >= 0
 Z_15:     z - 122 x_17 - 129 x_18 - 84 x_22 - 102 x_23 - 128 x_24 - 136 x_25
           - 136 x_26 - 133 x_31 - 135 x_35 - 113 x_38 - 130 x_40 - 126 x_44
           - 134 x_47 - 93 x_48 - 129 x_51 - 96 x_56 - 129 x_57 - 100 x_61
           - 119 x_63 - 123 x_64 - 129 x_73 - 136 x_74 - 132 x_77 >= 0
 Z_16:     z - 129 x_18 - 102 x_23 - 128 x_24 - 136 x_26 - 135 x_32 - 90 x_34
           - 113 x_38 - 130 x_40 - 126 x_44 - 134 x_47 - 93 x_48 - 129 x_51
           - 125 x_52 - 96 x_56 - 129 x_57 - 123 x_64 - 123 x_66 - 131 x_67
           - 129 x_73 - 120 x_76 - 132 x_77 >= 0
 Z_17:     z - 122 x_17 - 84 x_22 - 102 x_23 - 136 x_25 - 136 x_26 - 137 x_28
           - 133 x_31 - 135 x_35 - 85 x_36 - 113 x_38 - 130 x_40 - 88 x_49
           - 137 x_55 - 96 x_56 - 129 x_57 - 100 x_61 - 119 x_63 - 102 x_71
           - 129 x_73 - 136 x_74 - 132 x_77 >= 0
 Z_18:     z - 78 x_21 - 128 x_24 - 128 x_30 - 135 x_32 - 90 x_34 - 137 x_37
           - 136 x_43 - 126 x_44 - 134 x_47 - 93 x_48 - 125 x_52 - 129 x_57
           - 107 x_65 - 123 x_66 - 131 x_67 - 101 x_68 >= 0
 Z_19:     z - 78 x_21 - 128 x_24 - 128 x_30 - 135 x_32 - 137 x_37 - 136 x_43
           - 126 x_44 - 134 x_47 - 125 x_52 - 114 x_59 - 107 x_65 - 123 x_66
           - 131 x_67 >= 0
End
